Minimize
  0.1428571428571428 y_0 + 0.1428571428571428 y_1 + 0.125 y_2 + 0.1 y_3
   + 0.125 y_4 + 0.0909090909090909 y_5 + 0.0769230769230769 y_6 + 0.25 y_7
   + 0.1 y_8 + 0.0909090909090909 y_9 + 0.1111111111111111 y_10
   + 0.0909090909090909 y_11 + 0.1111111111111111 y_12 + 0.2 y_13
   + 0.1 y_14 + 0.0714285714285714 y_15 + 0.0909090909090909 y_16
   + 0.2 y_17 + 0.2 y_18 + 0.0833333333333333 y_19 + 0.2 y_20 + 0.1 y_21
   + 0.1 y_22 + 0.2 y_23 + 0.0769230769230769 y_24
   + 0.1428571428571428 y_25 + 0.25 y_26 + 0.0833333333333333 y_27
   + 0.0769230769230769 y_28 + 0.1428571428571428 y_29 + 0.125 y_30
   + 0.1111111111111111 y_31 + 0.1 y_32 + 0.5 y_33 + 0.1 y_34 + 0.125 y_35
   + 0.125 y_36 + 0.0714285714285714 y_37 + 0.0909090909090909 y_38
   + 0.1111111111111111 y_39 + 0.0833333333333333 y_40 + y_41
   + 0.0909090909090909 y_42 + 0.5 y_43 + 0.125 y_44 + 0.25 y_45
   + 0.25 y_46 + 0.125 y_47 + 0.125 y_48 + 0.1 y_49
   + 0.0909090909090909 y_50 + 0.25 y_51 + 0.0769230769230769 y_52
   + 0.125 y_53 + 0.1428571428571428 y_54 + 0.3333333333333333 y_55
   + 0.1 y_56 + 0.0833333333333333 y_57 + 0.125 y_58
   + 0.0833333333333333 y_59 + 0.1666666666666667 y_60
   + 0.0909090909090909 y_61 + 0.1 y_62 + 0.125 y_63
   + 0.0714285714285714 y_64 + 0.1428571428571428 y_65
   + 0.1111111111111111 y_66 + 0.1111111111111111 y_67
   + 0.1666666666666667 y_68 + 0.1 y_69 + 0.1428571428571428 y_70
   + 0.0833333333333333 y_71 + 0.2 y_72 + 0.1 y_73
   + 0.1111111111111111 y_74 + 0.1666666666666667 y_75 + 0.125 y_76
   + 0.1 y_77 + 0.0769230769230769 y_78 + 0.1 y_79
   + 0.0909090909090909 y_80 + 0.1666666666666667 y_81
   + 0.0909090909090909 y_82 + 0.1666666666666667 y_83
   + 0.0909090909090909 y_84 + 0.0909090909090909 y_85 + 0.1 y_86
   + 0.5 y_87 + 0.1666666666666667 y_88 + 0.1428571428571428 y_89
   + 0.1666666666666667 y_90 + 0.0909090909090909 y_91
   + 0.1428571428571428 y_92 + 0.25 y_93 + 0.1428571428571428 y_94
   + 0.1428571428571428 y_95 + 0.1111111111111111 y_96
   + 0.1111111111111111 y_97 + 0.125 y_98 + 0.125 y_99
   + 0.0769230769230769 y_100 + 0.3333333333333333 y_101 + 0.125 y_102
   + 0.0909090909090909 y_103 + 0.0769230769230769 y_104 + 0.1 y_105
   + 0.0909090909090909 y_106 + 0.1 y_107 + 0.1428571428571428 y_108
   + 0.0833333333333333 y_109 + 0.2 y_110 + 0.1428571428571428 y_111
   + 0.1428571428571428 y_112 + 0.1428571428571428 y_113
   + 0.1111111111111111 y_114 + 0.1 y_115 + 0.1428571428571428 y_116
   + 0.1111111111111111 y_117 + 0.1111111111111111 y_118
   + 0.0909090909090909 y_119 + 0.25 y_120 + 0.0909090909090909 y_121
   + 0.1666666666666667 y_122 + 0.1 y_123 + 0.1111111111111111 y_124
   + 0.1666666666666667 y_125 + 0.0833333333333333 y_126
   + 0.1111111111111111 y_127 + 0.25 y_128 + 0.125 y_129 + 0.125 y_130
   + 0.0769230769230769 y_131 + 0.2 y_132 + 0.1666666666666667 y_133
   + 0.0909090909090909 y_134 + 0.1 y_135 + 0.5 y_136
   + 0.0833333333333333 y_137 + 0.1 y_138 + 0.125 y_139
   + 0.0769230769230769 y_140 + 0.0909090909090909 y_141
   + 0.1111111111111111 y_142 + 0.1111111111111111 y_143
   + 0.1428571428571428 y_144 + 0.0909090909090909 y_145
   + 0.1666666666666667 y_146 + 0.3333333333333333 y_147
   + 0.0714285714285714 y_148 + 0.0909090909090909 y_149
   + 0.1111111111111111 y_150 + 0.1111111111111111 y_151
   + 0.0769230769230769 y_152 + 0.1 y_153 + 0.1 y_154 + 0.1 y_155
   + 0.1 y_156 + 0.1111111111111111 y_157 + 0.0714285714285714 y_158
   + 0.1 y_159 + 0.1111111111111111 y_160 + 0.1 y_161
   + 0.1111111111111111 y_162 + 0.0909090909090909 y_163
   + 0.0909090909090909 y_164 + 0.1 y_165 + 0.0909090909090909 y_166
   + 0.1666666666666667 y_167 + 0.1 y_168 + 0.0909090909090909 y_169
   + 0.0909090909090909 y_170 + 0.25 y_171 + 0.1111111111111111 y_172
   + 0.1666666666666667 y_173 + 0.125 y_174 + 0.1111111111111111 y_175
   + 0.2 y_176 + 0.0769230769230769 y_177 + 0.0909090909090909 y_178
   + 0.125 y_179 + 0.0833333333333333 y_180 + 0.0909090909090909 y_181
   + 0.1111111111111111 y_182 + 0.1 y_183 + 0.0714285714285714 y_184
   + 0.3333333333333333 y_185 + 0.1428571428571428 y_186
   + 0.0909090909090909 y_187 + 0.0714285714285714 y_188
   + 0.1428571428571428 y_189 + 0.125 y_190 + 0.1428571428571428 y_191
   + 0.1111111111111111 y_192 + 0.25 y_193 + 0.0909090909090909 y_194
   + 0.1111111111111111 y_195 + 0.1111111111111111 y_196
   + 0.3333333333333333 y_197 + 0.1 y_198 + 0.1428571428571428 y_199
   - 27.76509324009323 Constant
Subject To
 c_0: y_167 = 1
 c_1_0: y_0 + y_133 + y_195 >= 1
 c_1_1: y_1 + y_54 + y_60 + y_67 + y_111 + y_150 + y_167 + y_173 >= 1
 c_1_2: y_2 + y_97 + y_98 + y_105 + y_117 + y_123 + y_129 + y_196 >= 1
 c_1_3: y_3 + y_22 + y_27 + y_107 + y_169 + y_170 + y_195 >= 1
 c_1_4: y_4 + y_12 + y_21 + y_34 + y_39 + y_48 + y_92 + y_182 >= 1
 c_1_5: y_5 + y_10 + y_40 + y_56 + y_74 + y_82 + y_175 + y_180 >= 1
 c_1_6: y_6 + y_104 + y_137 + y_188 >= 1
 c_1_7: y_7 + y_18 + y_26 + y_60 + y_101 >= 1
 c_1_8: y_8 + y_106 >= 1
 c_1_9: y_9 + y_14 + y_49 + y_156 + y_160 + y_168 + y_192 >= 1
 c_1_10: y_5 + y_10 + y_56 + y_74 + y_175 >= 1
 c_1_11: y_11 + y_62 + y_79 + y_143 + y_154 >= 1
 c_1_12: y_4 + y_12 + y_21 + y_30 + y_34 + y_39 + y_48 + y_58 + y_77
   + y_141 + y_182 >= 1
 c_1_13: y_13 + y_17 + y_20 + y_51 + y_93 + y_94 + y_113 + y_146 + y_176
   + y_186 >= 1
 c_1_14: y_9 + y_14 + y_105 + y_118 + y_156 + y_183 + y_192 >= 1
 c_1_15: y_15 + y_24 + y_59 + y_64 + y_140 + y_177 >= 1
 c_1_16: y_16 + y_38 + y_52 + y_121 + y_126 + y_194 >= 1
 c_1_17: y_13 + y_17 + y_20 + y_51 + y_93 + y_146 + y_176 >= 1
 c_1_18: y_7 + y_18 + y_26 + y_54 + y_60 + y_68 + y_83 + y_111 + y_167
   + y_173 >= 1
 c_1_19: y_19 + y_91 + y_100 + y_148 + y_164 >= 1
 c_1_20: y_13 + y_17 + y_20 + y_51 + y_93 + y_146 + y_176 >= 1
 c_1_21: y_4 + y_12 + y_21 + y_34 + y_39 + y_84 + y_91 + y_182 >= 1
 c_1_22: y_3 + y_22 + y_27 + y_165 + y_166 + y_170 + y_195 >= 1
 c_1_23: y_23 + y_29 + y_72 + y_110 + y_128 + y_133 + y_144 >= 1
 c_1_24: y_15 + y_24 + y_59 + y_64 + y_140 + y_152 + y_177 + y_181 >= 1
 c_1_25: y_25 + y_36 + y_90 + y_95 + y_112 + y_122 + y_139 >= 1
 c_1_26: y_7 + y_18 + y_26 >= 1
 c_1_27: y_3 + y_22 + y_27 + y_28 + y_131 + y_166 + y_170 >= 1
 c_1_28: y_27 + y_28 + y_78 + y_131 + y_184 >= 1
 c_1_29: y_23 + y_29 + y_75 + y_76 + y_108 + y_110 + y_125 + y_132 + y_144
   >= 1
 c_1_30: y_12 + y_30 + y_34 + y_48 + y_58 + y_92 + y_97 + y_157 + y_191
   + y_196 >= 1
 c_1_31: y_31 + y_44 + y_47 + y_53 + y_62 + y_63 + y_79 + y_89 + y_124
   + y_143 >= 1
 c_1_32: y_32 + y_127 + y_137 + y_178 >= 1
 c_1_33: y_33 + y_41 + y_43 + y_87 + y_136 + y_197 >= 1
 c_1_34: y_4 + y_12 + y_21 + y_30 + y_34 + y_48 + y_58 + y_77 + y_115
   + y_141 + y_157 + y_164 + y_182 >= 1
 c_1_35: y_35 + y_44 + y_47 + y_66 + y_81 + y_124 + y_135 + y_175 + y_179
   + y_190 >= 1
 c_1_36: y_25 + y_36 + y_69 + y_95 + y_112 + y_127 + y_139 + y_151 + y_153
   + y_162 + y_172 >= 1
 c_1_37: y_37 + y_78 + y_184 >= 1
 c_1_38: y_16 + y_38 + y_85 + y_103 + y_121 + y_126 + y_138 + y_149 + y_155
   + y_187 >= 1
 c_1_39: y_4 + y_12 + y_21 + y_39 + y_84 + y_182 >= 1
 c_1_40: y_5 + y_40 + y_82 >= 1
 c_1_41: y_33 + y_41 + y_43 + y_55 + y_87 + y_136 + y_147 + y_185 >= 1
 c_1_42: y_42 + y_77 + y_80 + y_97 + y_115 + y_117 + y_123 + y_157 >= 1
 c_1_43: y_33 + y_41 + y_43 + y_45 + y_87 + y_136 + y_197 >= 1
 c_1_44: y_31 + y_35 + y_44 + y_47 + y_53 + y_63 + y_89 + y_124 + y_143
   + y_179 + y_190 >= 1
 c_1_45: y_43 + y_45 + y_75 + y_132 + y_136 + y_197 >= 1
 c_1_46: y_46 + y_55 + y_120 + y_171 + y_193 >= 1
 c_1_47: y_31 + y_35 + y_44 + y_47 + y_53 + y_66 + y_89 + y_124 + y_135
   + y_143 + y_179 + y_190 >= 1
 c_1_48: y_4 + y_12 + y_30 + y_34 + y_48 + y_58 + y_92 + y_97 + y_157
   + y_182 + y_191 >= 1
 c_1_49: y_9 + y_49 + y_109 + y_114 + y_119 + y_145 + y_156 + y_159 + y_160
   + y_168 + y_174 + y_192 >= 1
 c_1_50: y_50 + y_57 + y_61 + y_71 + y_86 + y_134 >= 1
 c_1_51: y_13 + y_17 + y_20 + y_51 + y_93 + y_136 + y_197 >= 1
 c_1_52: y_16 + y_52 + y_121 + y_126 + y_194 >= 1
 c_1_53: y_31 + y_44 + y_47 + y_53 + y_62 + y_63 + y_89 + y_124 + y_138
   + y_143 >= 1
 c_1_54: y_1 + y_18 + y_54 + y_60 + y_68 + y_111 + y_167 + y_173 >= 1
 c_1_55: y_41 + y_46 + y_55 + y_120 + y_128 + y_171 + y_193 >= 1
 c_1_56: y_5 + y_10 + y_56 + y_66 + y_74 + y_135 + y_154 + y_175 + y_179
   + y_190 >= 1
 c_1_57: y_50 + y_57 + y_61 + y_71 + y_86 + y_134 + y_152 >= 1
 c_1_58: y_12 + y_30 + y_34 + y_48 + y_58 + y_77 + y_97 + y_115 + y_117
   + y_123 + y_157 + y_182 + y_191 + y_196 >= 1
 c_1_59: y_15 + y_24 + y_59 + y_64 + y_140 + y_152 + y_177 + y_181 >= 1
 c_1_60: y_1 + y_7 + y_18 + y_54 + y_60 + y_111 + y_167 + y_173 >= 1
 c_1_61: y_50 + y_57 + y_61 + y_71 + y_86 + y_134 >= 1
 c_1_62: y_11 + y_31 + y_53 + y_62 + y_63 + y_79 + y_103 + y_124 + y_143
   + y_149 + y_187 >= 1
 c_1_63: y_31 + y_44 + y_53 + y_62 + y_63 + y_89 + y_124 + y_138 + y_150
   + y_155 >= 1
 c_1_64: y_15 + y_24 + y_59 + y_64 + y_140 + y_152 + y_177 >= 1
 c_1_65: y_65 + y_68 + y_70 + y_83 + y_99 + y_102 + y_116 + y_199 >= 1
 c_1_66: y_35 + y_47 + y_56 + y_66 + y_74 + y_79 + y_124 + y_135 + y_143
   + y_154 + y_175 + y_179 + y_190 >= 1
 c_1_67: y_1 + y_67 + y_150 + y_194 >= 1
 c_1_68: y_18 + y_54 + y_65 + y_68 + y_83 + y_102 + y_111 + y_116 + y_199
   >= 1
 c_1_69: y_36 + y_69 + y_151 + y_153 + y_162 + y_172 >= 1
 c_1_70: y_65 + y_70 + y_83 + y_116 + y_142 + y_199 >= 1
 c_1_71: y_50 + y_57 + y_61 + y_71 + y_86 + y_134 >= 1
 c_1_72: y_23 + y_72 + y_110 + y_120 + y_128 + y_133 + y_171 >= 1
 c_1_73: y_73 + y_142 >= 1
 c_1_74: y_5 + y_10 + y_56 + y_66 + y_74 + y_135 + y_175 + y_179 + y_190
   >= 1
 c_1_75: y_29 + y_45 + y_75 + y_108 + y_125 + y_132 >= 1
 c_1_76: y_29 + y_76 + y_96 + y_108 + y_114 + y_130 + y_144 + y_160 + y_174
   >= 1
 c_1_77: y_12 + y_34 + y_42 + y_58 + y_77 + y_80 + y_97 + y_115 + y_123
   + y_141 + y_157 + y_164 + y_182 >= 1
 c_1_78: y_28 + y_37 + y_78 + y_131 + y_184 >= 1
 c_1_79: y_11 + y_31 + y_62 + y_66 + y_79 + y_124 + y_135 + y_143 + y_154
   >= 1
 c_1_80: y_42 + y_77 + y_80 + y_115 + y_123 + y_141 + y_157 + y_164 >= 1
 c_1_81: y_35 + y_81 >= 1
 c_1_82: y_5 + y_40 + y_82 >= 1
 c_1_83: y_18 + y_65 + y_68 + y_70 + y_83 + y_102 + y_116 + y_199 >= 1
 c_1_84: y_21 + y_39 + y_84 + y_91 >= 1
 c_1_85: y_38 + y_85 + y_103 + y_138 + y_149 + y_155 + y_187 >= 1
 c_1_86: y_50 + y_57 + y_61 + y_71 + y_86 + y_134 >= 1
 c_1_87: y_33 + y_41 + y_43 + y_87 + y_101 + y_136 + y_147 + y_185 >= 1
 c_1_88: y_88 + y_90 + y_122 + y_176 >= 1
 c_1_89: y_31 + y_44 + y_47 + y_53 + y_63 + y_89 >= 1
 c_1_90: y_25 + y_88 + y_90 + y_95 + y_112 + y_122 + y_139 + y_146 + y_176
   >= 1
 c_1_91: y_19 + y_21 + y_84 + y_91 + y_100 >= 1
 c_1_92: y_4 + y_30 + y_48 + y_92 + y_94 + y_191 >= 1
 c_1_93: y_13 + y_17 + y_20 + y_51 + y_93 + y_146 + y_147 + y_176 >= 1
 c_1_94: y_13 + y_92 + y_94 + y_113 + y_186 >= 1
 c_1_95: y_25 + y_36 + y_90 + y_95 + y_112 + y_122 + y_127 + y_139 + y_172
   >= 1
 c_1_96: y_76 + y_96 + y_114 + y_119 + y_130 + y_145 + y_159 + y_165
   + y_174 >= 1
 c_1_97: y_2 + y_30 + y_42 + y_48 + y_58 + y_77 + y_97 + y_115 + y_117
   + y_123 + y_129 + y_157 + y_191 + y_196 >= 1
 c_1_98: y_2 + y_98 + y_105 + y_108 + y_118 + y_125 + y_183 >= 1
 c_1_99: y_65 + y_99 + y_102 + y_111 + y_116 + y_198 >= 1
 c_1_100: y_19 + y_91 + y_100 >= 1
 c_1_101: y_7 + y_87 + y_101 + y_147 + y_185 >= 1
 c_1_102: y_65 + y_68 + y_83 + y_99 + y_102 + y_111 + y_116 + y_199 >= 1
 c_1_103: y_38 + y_62 + y_85 + y_103 + y_138 + y_149 + y_155 + y_187 >= 1
 c_1_104: y_6 + y_104 + y_137 + y_188 >= 1
 c_1_105: y_2 + y_14 + y_98 + y_105 + y_118 + y_183 >= 1
 c_1_106: y_8 + y_106 >= 1
 c_1_107: y_3 + y_107 + y_161 + y_163 + y_169 >= 1
 c_1_108: y_29 + y_75 + y_76 + y_98 + y_108 + y_118 + y_125 + y_144 + y_192
   >= 1
 c_1_109: y_49 + y_109 + y_119 + y_145 + y_159 + y_168 >= 1
 c_1_110: y_23 + y_29 + y_72 + y_110 + y_128 + y_133 + y_144 >= 1
 c_1_111: y_1 + y_18 + y_54 + y_60 + y_68 + y_99 + y_102 + y_111 + y_116
   + y_167 >= 1
 c_1_112: y_25 + y_36 + y_90 + y_95 + y_112 + y_122 + y_127 + y_139 + y_172
   >= 1
 c_1_113: y_13 + y_94 + y_113 + y_146 + y_186 >= 1
 c_1_114: y_49 + y_76 + y_96 + y_114 + y_119 + y_145 + y_159 + y_160
   + y_168 + y_174 + y_192 >= 1
 c_1_115: y_34 + y_42 + y_58 + y_77 + y_80 + y_97 + y_115 + y_117 + y_123
   + y_141 + y_157 + y_196 >= 1
 c_1_116: y_65 + y_68 + y_70 + y_83 + y_99 + y_102 + y_111 + y_116 + y_199
   >= 1
 c_1_117: y_2 + y_42 + y_58 + y_97 + y_115 + y_117 + y_123 + y_129 + y_157
   + y_196 >= 1
 c_1_118: y_14 + y_98 + y_105 + y_108 + y_118 + y_156 + y_160 + y_183
   + y_192 >= 1
 c_1_119: y_49 + y_96 + y_109 + y_114 + y_119 + y_145 + y_159 + y_160
   + y_168 + y_174 >= 1
 c_1_120: y_46 + y_55 + y_72 + y_120 + y_128 + y_171 + y_193 >= 1
 c_1_121: y_16 + y_38 + y_52 + y_121 + y_126 + y_194 >= 1
 c_1_122: y_25 + y_88 + y_90 + y_95 + y_112 + y_122 + y_139 + y_176 >= 1
 c_1_123: y_2 + y_42 + y_58 + y_77 + y_80 + y_97 + y_115 + y_117 + y_123
   + y_129 + y_157 + y_196 >= 1
 c_1_124: y_31 + y_35 + y_44 + y_47 + y_53 + y_62 + y_63 + y_66 + y_79
   + y_124 + y_135 + y_143 + y_154 + y_179 + y_190 >= 1
 c_1_125: y_29 + y_75 + y_98 + y_108 + y_125 + y_132 >= 1
 c_1_126: y_16 + y_38 + y_52 + y_121 + y_126 + y_194 >= 1
 c_1_127: y_32 + y_36 + y_95 + y_112 + y_127 + y_139 + y_172 + y_178 >= 1
 c_1_128: y_23 + y_55 + y_72 + y_110 + y_120 + y_128 + y_171 + y_193 >= 1
 c_1_129: y_2 + y_97 + y_117 + y_123 + y_129 + y_157 + y_196 >= 1
 c_1_130: y_76 + y_96 + y_130 + y_144 + y_174 >= 1
 c_1_131: y_27 + y_28 + y_78 + y_131 + y_166 + y_170 + y_184 >= 1
 c_1_132: y_29 + y_45 + y_75 + y_125 + y_132 >= 1
 c_1_133: y_0 + y_23 + y_72 + y_110 + y_133 >= 1
 c_1_134: y_50 + y_57 + y_61 + y_71 + y_86 + y_134 >= 1
 c_1_135: y_35 + y_47 + y_56 + y_66 + y_74 + y_79 + y_124 + y_135 + y_143
   + y_154 + y_175 + y_179 + y_190 >= 1
 c_1_136: y_33 + y_41 + y_43 + y_45 + y_51 + y_87 + y_136 + y_197 >= 1
 c_1_137: y_6 + y_32 + y_104 + y_137 + y_178 >= 1
 c_1_138: y_38 + y_53 + y_63 + y_85 + y_103 + y_138 + y_150 + y_155 >= 1
 c_1_139: y_25 + y_36 + y_90 + y_95 + y_112 + y_122 + y_127 + y_139 + y_172
   >= 1
 c_1_140: y_15 + y_24 + y_59 + y_64 + y_140 + y_177 + y_181 >= 1
 c_1_141: y_12 + y_34 + y_77 + y_80 + y_115 + y_141 + y_157 + y_164 + y_182
   >= 1
 c_1_142: y_70 + y_73 + y_142 >= 1
 c_1_143: y_11 + y_31 + y_44 + y_47 + y_53 + y_62 + y_66 + y_79 + y_124
   + y_135 + y_143 + y_154 >= 1
 c_1_144: y_23 + y_29 + y_76 + y_108 + y_110 + y_130 + y_144 + y_174 >= 1
 c_1_145: y_49 + y_96 + y_109 + y_114 + y_119 + y_145 + y_159 + y_160
   + y_168 + y_174 >= 1
 c_1_146: y_13 + y_17 + y_20 + y_90 + y_93 + y_113 + y_146 + y_176 + y_186
   >= 1
 c_1_147: y_41 + y_87 + y_93 + y_101 + y_147 + y_176 + y_185 >= 1
 c_1_148: y_19 + y_148 >= 1
 c_1_149: y_38 + y_62 + y_85 + y_103 + y_149 + y_187 >= 1
 c_1_150: y_1 + y_63 + y_67 + y_138 + y_150 + y_155 >= 1
 c_1_151: y_36 + y_69 + y_151 + y_153 + y_162 >= 1
 c_1_152: y_24 + y_57 + y_59 + y_64 + y_152 + y_177 >= 1
 c_1_153: y_36 + y_69 + y_151 + y_153 + y_162 + y_172 >= 1
 c_1_154: y_11 + y_56 + y_66 + y_79 + y_124 + y_135 + y_143 + y_154 + y_175
   + y_179 >= 1
 c_1_155: y_38 + y_63 + y_85 + y_103 + y_138 + y_150 + y_155 >= 1
 c_1_156: y_9 + y_14 + y_49 + y_118 + y_156 + y_160 + y_168 + y_192 >= 1
 c_1_157: y_30 + y_34 + y_42 + y_48 + y_58 + y_77 + y_80 + y_97 + y_115
   + y_117 + y_123 + y_129 + y_141 + y_157 + y_196 >= 1
 c_1_158: y_158 + y_188 >= 1
 c_1_159: y_49 + y_96 + y_109 + y_114 + y_119 + y_145 + y_159 + y_160
   + y_168 + y_174 >= 1
 c_1_160: y_9 + y_49 + y_76 + y_114 + y_118 + y_119 + y_145 + y_156 + y_159
   + y_160 + y_168 + y_174 + y_192 >= 1
 c_1_161: y_107 + y_161 + y_163 + y_169 >= 1
 c_1_162: y_36 + y_69 + y_151 + y_153 + y_162 >= 1
 c_1_163: y_107 + y_161 + y_163 + y_169 >= 1
 c_1_164: y_19 + y_34 + y_77 + y_80 + y_141 + y_164 >= 1
 c_1_165: y_22 + y_96 + y_165 + y_166 + y_170 >= 1
 c_1_166: y_22 + y_27 + y_131 + y_165 + y_166 + y_170 >= 1
 c_1_167: y_1 + y_18 + y_54 + y_60 + y_111 + y_167 + y_173 >= 1
 c_1_168: y_9 + y_49 + y_109 + y_114 + y_119 + y_145 + y_156 + y_159
   + y_160 + y_168 + y_192 >= 1
 c_1_169: y_3 + y_107 + y_161 + y_163 + y_169 >= 1
 c_1_170: y_3 + y_22 + y_27 + y_131 + y_165 + y_166 + y_170 + y_195 >= 1
 c_1_171: y_46 + y_55 + y_72 + y_120 + y_128 + y_171 + y_193 >= 1
 c_1_172: y_36 + y_69 + y_95 + y_112 + y_127 + y_139 + y_153 + y_172 >= 1
 c_1_173: y_1 + y_18 + y_54 + y_60 + y_167 + y_173 >= 1
 c_1_174: y_49 + y_76 + y_96 + y_114 + y_119 + y_130 + y_144 + y_145
   + y_159 + y_160 + y_174 >= 1
 c_1_175: y_5 + y_10 + y_35 + y_56 + y_66 + y_74 + y_135 + y_154 + y_175
   + y_179 + y_190 >= 1
 c_1_176: y_13 + y_17 + y_20 + y_88 + y_90 + y_93 + y_122 + y_146 + y_147
   + y_176 >= 1
 c_1_177: y_15 + y_24 + y_59 + y_64 + y_140 + y_152 + y_177 >= 1
 c_1_178: y_32 + y_127 + y_137 + y_178 >= 1
 c_1_179: y_35 + y_44 + y_47 + y_56 + y_66 + y_74 + y_124 + y_135 + y_154
   + y_175 + y_179 + y_190 >= 1
 c_1_180: y_5 + y_180 >= 1
 c_1_181: y_24 + y_59 + y_140 + y_181 + y_194 + y_198 >= 1
 c_1_182: y_4 + y_12 + y_21 + y_34 + y_39 + y_48 + y_58 + y_77 + y_141
   + y_182 >= 1
 c_1_183: y_14 + y_98 + y_105 + y_118 + y_183 >= 1
 c_1_184: y_28 + y_37 + y_78 + y_131 + y_184 >= 1
 c_1_185: y_41 + y_87 + y_101 + y_147 + y_185 >= 1
 c_1_186: y_13 + y_94 + y_113 + y_146 + y_186 >= 1
 c_1_187: y_38 + y_62 + y_85 + y_103 + y_149 + y_187 >= 1
 c_1_188: y_6 + y_104 + y_158 + y_188 >= 1
 c_1_189: y_189 >= 1
 c_1_190: y_35 + y_44 + y_47 + y_56 + y_66 + y_74 + y_124 + y_135 + y_175
   + y_179 + y_190 >= 1
 c_1_191: y_30 + y_48 + y_58 + y_92 + y_97 + y_191 + y_196 >= 1
 c_1_192: y_9 + y_14 + y_49 + y_108 + y_114 + y_118 + y_156 + y_160 + y_168
   + y_192 >= 1
 c_1_193: y_46 + y_55 + y_120 + y_128 + y_171 + y_193 >= 1
 c_1_194: y_16 + y_52 + y_67 + y_121 + y_126 + y_181 + y_194 >= 1
 c_1_195: y_0 + y_3 + y_22 + y_170 + y_195 >= 1
 c_1_196: y_2 + y_30 + y_58 + y_97 + y_115 + y_117 + y_123 + y_129 + y_157
   + y_191 + y_196 >= 1
 c_1_197: y_33 + y_43 + y_45 + y_51 + y_136 + y_197 >= 1
 c_1_198: y_99 + y_181 + y_198 >= 1
 c_1_199: y_65 + y_68 + y_70 + y_83 + y_102 + y_116 + y_199 >= 1
Bounds
 Constant = 1
Binaries
 y_0 y_1 y_2 y_3 y_4 y_5 y_6 y_7 y_8 y_9 y_10 y_11 y_12 y_13 y_14 y_15 y_16
 y_17 y_18 y_19 y_20 y_21 y_22 y_23 y_24 y_25 y_26 y_27 y_28 y_29 y_30 y_31
 y_32 y_33 y_34 y_35 y_36 y_37 y_38 y_39 y_40 y_41 y_42 y_43 y_44 y_45 y_46
 y_47 y_48 y_49 y_50 y_51 y_52 y_53 y_54 y_55 y_56 y_57 y_58 y_59 y_60 y_61
 y_62 y_63 y_64 y_65 y_66 y_67 y_68 y_69 y_70 y_71 y_72 y_73 y_74 y_75 y_76
 y_77 y_78 y_79 y_80 y_81 y_82 y_83 y_84 y_85 y_86 y_87 y_88 y_89 y_90 y_91
 y_92 y_93 y_94 y_95 y_96 y_97 y_98 y_99 y_100 y_101 y_102 y_103 y_104
 y_105 y_106 y_107 y_108 y_109 y_110 y_111 y_112 y_113 y_114 y_115 y_116
 y_117 y_118 y_119 y_120 y_121 y_122 y_123 y_124 y_125 y_126 y_127 y_128
 y_129 y_130 y_131 y_132 y_133 y_134 y_135 y_136 y_137 y_138 y_139 y_140
 y_141 y_142 y_143 y_144 y_145 y_146 y_147 y_148 y_149 y_150 y_151 y_152
 y_153 y_154 y_155 y_156 y_157 y_158 y_159 y_160 y_161 y_162 y_163 y_164
 y_165 y_166 y_167 y_168 y_169 y_170 y_171 y_172 y_173 y_174 y_175 y_176
 y_177 y_178 y_179 y_180 y_181 y_182 y_183 y_184 y_185 y_186 y_187 y_188
 y_189 y_190 y_191 y_192 y_193 y_194 y_195 y_196 y_197 y_198 y_199
End
